n_res = 4;
rcap = [29, 26, 174, 179];
rtype = [1, 1, 2, 2];
n_tasks = 30;
modes = [ {1, 2, 3}, {4, 5, 6}, {7, 8, 9}, {10, 11, 12}, {13, 14, 15}, {16, 17, 18}, {19, 20, 21}, {22, 23, 24}, {25, 26, 27}, {28, 29, 30}, {31, 32, 33}, {34, 35, 36}, {37, 38, 39}, {40, 41, 42}, {43, 44, 45}, {46, 47, 48}, {49, 50, 51}, {52, 53, 54}, {55, 56, 57}, {58, 59, 60}, {61, 62, 63}, {64, 65, 66}, {67, 68, 69}, {70, 71, 72}, {73, 74, 75}, {76, 77, 78}, {79, 80, 81}, {82, 83, 84}, {85, 86, 87}, {88, 89, 90} ];
succ = [ {4, 9, 15}, {5, 6, 10}, {24}, {8, 16, 27}, {22}, {7, 8, 12}, {11, 18, 24}, {18}, {12, 19, 29}, {18}, {13, 14, 19}, {20, 21}, {15, 23, 26}, {21}, {17, 28}, {17, 22, 24}, {30}, {21}, {20, 22}, {23, 25}, {23}, {25}, {28}, {25, 26}, {28, 30}, {29, 30}, {29}, {}, {}, {} ];
n_opt = 90;
dur = [4, 8, 9, 2, 6, 9, 2, 4, 10, 2, 5, 10, 2, 3, 7, 6, 8, 10, 4, 5, 10, 3, 3, 3, 1, 2, 5, 2, 8, 9, 1, 4, 4, 1, 3, 9, 5, 9, 10, 8, 8, 10, 4, 6, 10, 2, 3, 9, 2, 3, 5, 5, 6, 7, 1, 2, 10, 1, 5, 8, 4, 9, 10, 5, 6, 6, 3, 7, 8, 1, 5, 8, 2, 8, 10, 5, 5, 6, 1, 2, 7, 3, 6, 10, 3, 7, 8, 4, 7, 10];
rreq = [|  4,  4,  1,  7,  7,  6,  5,  5,  4, 10, 10,  9,  6,  5,  4,  6,  6,  6,  6,  5,  3,  4,  5,  6, 10, 10,  9, 10, 10,  9,  9,  6,  7,  7,  4,  2,  6,  5,  4,  9,  9,  6, 10,  6,  2,  8,  8,  6,  1,  1,  1,  7,  7,  5,  7,  5,  3,  5,  4,  4,  7,  7,  6,  8,  6,  7, 10, 10, 10,  5,  3,  1,  2,  2,  2,  7,  6,  6,  9,  7,  2,  7,  6,  5,  5,  3,  2,  9,  9,  7
        |  8,  6,  5,  7,  7,  7,  1,  1,  1,  8,  8,  7,  8,  7,  7, 10,  8,  7,  7,  5,  3,  5,  6,  6,  3,  2,  1,  6,  5,  5,  7,  5,  4,  4,  4,  3,  5,  4,  4,  5,  6,  5, 10, 10,  9,  6,  4,  4, 10, 10,  9,  7,  5,  2,  8,  7,  4,  2,  1,  1,  8,  7,  7,  5,  1,  1,  8,  6,  5,  7,  7,  6,  8,  8,  5,  4,  4,  4,  4,  3,  3,  6,  5,  3,  5,  5,  4,  3,  3,  3
        |  2,  1,  1,  7,  5,  2,  4,  3,  1,  8,  4,  4,  5,  4,  4,  4,  4,  4,  9,  5,  3,  7,  6,  5,  7,  5,  4,  9,  9,  9,  3,  2,  2,  5,  4,  4,  3,  3,  3,  9,  8,  6,  6,  6,  4,  7,  7,  4,  8,  7,  6,  9,  8,  6,  4,  4,  1,  6,  6,  6,  9,  6,  6,  7,  5,  6,  9,  8,  7,  5,  4,  2,  8,  7,  7, 10, 10,  9,  6,  4,  2,  8,  6,  3,  1,  1,  1,  5,  5,  5
        |  8,  6,  4,  8,  6,  5,  7,  6,  5,  7,  6,  4,  7,  6,  6,  5,  3,  3,  5,  5,  5,  5,  6,  6,  4,  4,  4, 10,  7,  6, 10,  9,  9,  5,  4,  4,  4,  3,  3,  5,  4,  4,  8,  7,  6,  6,  5,  4,  6,  5,  4, 10, 10,  9,  9,  9,  9,  4,  4,  3,  3,  3,  3, 10,  3,  2,  9,  9,  8,  4,  3,  2,  5,  4,  3,  2,  3,  1,  3,  3,  3,  8,  6,  3,  7,  5,  4,  8,  5,  4 |];
